0001 5
0002 5
0003 2
0004 8
0005 1
0006 1
0007 1
0008 1
0009 3
0010 3
0011 8
0012 3
0013 13
0014 1
0015 3
0016 4
0017 13
0018 13
0019 12
0020 4
0021 2
0022 1
0023 1
0024 12
0025 4
0026 2
0027 11
0028 6
0029 6
0030 4
0031 8
0032 1
0033 6
0034 3
0035 3
0036 6
0037 13
0038 4
0039 4
0040 4
0041 12
0042 1
0043 4
0044 13
0045 1
0046 13
0047 13
0048 7
0049 6
0050 13
0051 4
0052 4
0053 1
0054 6
0055 13
0056 10
0057 8
0058 12
0059 2
0060 2
0061 1
0062 4
0063 13
0064 12
0065 13
0066 12
0067 1
0068 8
0069 8
0070 8
0071 12
0072 10
0073 13
0074 13
0075 13
0076 13
0077 1
0078 1
0079 13
0080 10
0081 1
0082 4
0083 13
0084 1
0085 2
0086 12
0087 13
0088 13
0089 12
0090 12
0091 2
0092 4
0093 2
0094 12
0095 4
0096 4
0097 7
0098 5
0099 5
0100 4
0101 5
0102 5
0103 10
0104 10
0105 5
0106 5
0107 7
0108 7
0109 12
0110 12
0111 12
0112 8
0113 13
0114 3
0115 13
0116 10
0117 8
0118 1
0119 3
0120 1
0121 1
0122 1
0123 2
0124 13
0125 2
0126 4
0127 2
0128 1
0129 4
0130 7
0131 8
0132 2
0133 6
0134 3
0135 9
0136 9
0137 9
0138 11
0139 3
